falcon_planner/lkh_mtsp_solver/resource/amtsp3_1.atsp
NAME : pairopt
TYPE : ACVRP
DIMENSION : 6
EDGE_WEIGHT_TYPE : EXPLICIT
EDGE_WEIGHT_FORMAT : FULL_MATRIX
CAPACITY : 11250
VEHICLES : 2
EDGE_WEIGHT_SECTION
100000 -100000 -100000 100000 100000 100000 
100000 100000 1000000 51167 51394 52 
100000 1000000 100000 399 291 51292 
0 51167 399 100000 250 102236 
0 51394 291 250 100000 102692 
0 52 51292 102236 102692 100000 
DEMAND_SECTION
1 0
2 0
3 0
4 5000
5 5000
6 5000
DEPOT_SECTION
1
EOF