falcon_planner/lkh_mtsp_solver/resource/amtsp3_1.tour
NAME : pairopt.5265.tour
COMMENT : Length = 5265
COMMENT : Found by LKH-3 [Keld Helsgaun] Wed Mar  5 13:35:26 2025
TYPE : TOUR
DIMENSION : 14
TOUR_SECTION
1
2
13
5
6
7
8
4
9
14
3
10
11
12
-1
EOF
